(set-logic ALL)
(declare-fun var0 () String)
(assert (str.in_re var0 (re.++ (re.* (re.+ (str.to_re "0"))) (re.++ (re.+ (re.* (str.to_re "111"))) (re.++ (re.+ (re.+ (str.to_re "222"))) (re.++ (re.union (re.+ (str.to_re "333")) (re.+ (str.to_re "4"))) (re.++ (re.+ (re.union (str.to_re "5") (str.to_re "666"))) (re.++ (re.+ (re.+ (str.to_re "7"))) (re.++ (re.* (re.+ (str.to_re "88"))) (re.++ (re.union (re.union (str.to_re "9") (str.to_re "aa")) (re.union (str.to_re "bbb") (str.to_re "cc"))) (re.++ (re.+ (re.union (str.to_re "dd") (str.to_re "eee"))) (re.+ (re.* (str.to_re "f"))))))))))))))
(assert (<= 101 (str.len var0)))
(check-sat)